p cnf 9 27
2 -6 6 0
7 -1 -9 0
-3 0
-7 4 -2 0
-5 4 6 0
-7 4 -1 0
1 2 3 0
3 4 -9 0
-7 5 6 -2 0
-8 0
-5 -1 0
-4 -1 0
-7 0
7 0
-4 -2 6 0
8 0
3 6 -2 0
8 9 5 6 0
-2 0
2 0
-8 0
-2 0
1 -6 3 4 0
-5 0
9 -4 5 0
2 6 0
-6 4 -3 -9 0
